#hf 

graphene sheet

0  1
  Tv     4.25999826    0.00000000    0.00000000 
  Tv     0.00000000    2.45950984    0.00000000 
  Tv     0.00000000    0.00000000    2.45950984 


