#hf units=au

graphene sheet

0  1
Tv    8.05023    0.0     0.0 
Tv    0.0    4.6478     0.0 
Tv   0.0  0.0 6.411235861111111


