# hf units=au

pillar

0 1
  C   17.447436  4.454844  -0.000550 
  C   19.856257  5.694396  0.001333 
  C   22.647309  10.267901  -0.000091 
  C   22.649715  12.976135  -0.000905 
  C   19.860095  17.548967  0.000457 
  C   17.449873  18.787186  -0.000376 
  C   12.069977  18.785013  -0.000584 
  C   9.660695  17.545587  0.001199 
  C   6.868740  12.972750  0.000034 
  C   6.866740  10.263939  -0.000781 
  C   9.656899  5.691537  0.000696 
  C   12.067193  4.453612  -0.000431 
  C   0.022400  0.024487  7.234773 
  C   5.414951  0.023435  6.337526 
  C   4.047220  2.353944  6.360610 
  C   1.385464  2.354741  6.917872 
  C   8.062989  0.042024  5.713363 
  C   16.116200  0.015230  5.079820 
  C   24.101666  0.024303  6.336713 
  C   13.401579  0.015217  5.080218 
  C   21.454123  0.042494  5.712356 
  C   29.493378  0.025211  7.234601 
  C   11.978171  2.131180  4.129757 
  C   20.230285  2.241336  4.640508 
  C   28.130780  2.355902  6.916460 
  C   9.286804  2.240852  4.641264 
  C   17.538856  2.131559  4.129165 
  C   25.469401  2.354958  6.359398 
  C   0.014442  4.694253  6.831016 
  C   0.006859  9.312979  6.293917 
  C   0.006814  13.926645  6.294214 
  C   0.014469  18.545927  6.830249 
  C   0.022840  23.215416  7.234821 
  C   5.283141  4.600565  5.412654 
  C   4.959259  9.178767  4.228596 
  C   4.960215  14.060573  4.229629 
  C   5.282867  18.638119  5.412685 
  C   5.414713  23.215385  6.337050 
  C   3.928824  6.961924  5.432568 
  C   3.813434  11.619905  4.741264 
  C   3.928828  16.277637  5.433070 
  C   4.047088  20.885310  6.359776 
  C   4.096659  25.563498  6.762000 
  C   1.360753  6.989472  6.325566 
  C   1.356770  11.619990  5.877677 
  C   1.360814  16.250542  6.325395 
  C   1.385676  20.884834  6.916791 
  C   1.401641  25.563437  7.175639 
  C   7.714436  4.447543  4.194476 
  C   6.810140  8.667450  2.270260 
  C   6.812848  14.569664  2.270891 
  C   7.714646  18.791129  4.194112 
  C   8.062882  23.197280  5.712601 
  C   16.106209  3.610392  2.278949 
  C   16.107889  19.630413  2.278896 
  C   16.115356  23.224902  5.079928 
  C   24.234089  4.601993  5.412793 
  C   24.556496  9.179879  4.228340 
  C   24.558285  14.061774  4.228204 
  C   24.234871  18.639451  5.412561 
  C   24.101807  23.217105  6.337467 
  C   13.409340  3.609839  2.279153 
  C   13.410957  19.629342  2.278563 
  C   13.400992  23.224116  5.079629 
  C   21.802392  4.448914  4.193882 
  C   22.704165  8.670644  2.270532 
  C   22.707153  14.572837  2.270053 
  C   21.803733  18.792493  4.193876 
  C   21.454634  23.197488  5.712757 
  C   29.501753  4.694870  6.830484 
  C   29.510384  9.313534  6.294135 
  C   29.509718  13.926934  6.294156 
  C   29.501818  18.546194  6.830842 
  C   29.494063  23.215626  7.235014 
  C   11.978911  21.107835  4.128720 
  C   12.078650  25.563219  5.513681 
  C   21.326042  6.352597  2.269059 
  C   21.328782  16.890206  2.267934 
  C   20.230805  20.999156  4.640795 
  C   20.112535  25.563459  5.738915 
  C   28.155570  6.990150  6.325321 
  C   28.160050  11.620454  5.877625 
  C   28.155910  16.250797  6.325549 
  C   28.130884  20.885029  6.917761 
  C   28.114395  25.563830  7.175708 
  C   8.189092  6.350026  2.268146 
  C   8.191339  16.887396  2.269644 
  C   9.287164  20.998415  4.640298 
  C   9.404698  25.562690  5.739616 
  C   17.539028  21.109348  4.129783 
  C   17.438606  25.563634  5.513096 
  C   25.588191  6.962907  5.432614 
  C   25.703726  11.620705  4.740810 
  C   25.588768  16.278157  5.432548 
  C   25.469343  20.886208  6.360635 
  C   25.419437  25.563596  6.761601 
 Tv                32.20094600    0.00000000    0.00000000
 Tv                 0.00000000   27.88683560    0.00000000
 Tv                 0.00000000    0.00000000   6.411235861111111

