#hf 

sadfas

0  1
  C3     9.23278552    2.35740192   -0.00029105 
  C3    10.50747870    3.01334459    0.00070539 
  C3    11.98443981    5.43353921   -0.00004816 
  C3    11.98571301    6.86667493   -0.00047891 
  C3    10.50950968    9.28651341    0.00024183 
  C3     9.23407513    9.94175069   -0.00019897 
  C3     6.38715677    9.94060079   -0.00030904 
  C3     5.11221964    9.28472479    0.00063448 
  C3     3.63478068    6.86488366    0.00001799 
  C3     3.63372232    5.43144261   -0.00041329 
  C3     5.11021088    3.01183168    0.00036831 
  C3     6.38568354    2.35674998   -0.00022808 
  C1     0.01185357    0.01295796    3.82847700 
  C1     2.86546867    0.01240127    3.35367433 
  C1     2.14169659    1.24565352    3.36588986 
  C1     0.73315598    1.24607528    3.66078021 
  C1     4.26675003    0.02223814    3.02338150 
  C1     8.52832577    0.00805937    2.68812498 
  C1    12.75405239    0.01286059    3.35324411 
  C1     7.09181020    0.00805249    2.68833559 
  C1    11.35303297    0.02248686    3.02284862 
  C1    15.60722351    0.01334109    3.82838598 
  C3     6.33857512    1.12777189    2.18537329 
  C3    10.70540579    1.18606393    2.45565108 
  C1    14.88616770    1.24668965    3.66003301 
  C3     4.91436504    1.18580781    2.45605114 
  C3     9.28116290    1.12797245    2.18506002 
  C1    13.47782659    1.24619011    3.36524850 
  C1     0.00764238    2.48409171    3.61481800 
  C1     0.00362963    4.92821625    3.33059744 
  C1     0.00360581    7.36966316    3.33075461 
  C1     0.00765667    9.81408193    3.61441212 
  C1     0.01208641   12.28506909    3.82850240 
  C1     2.79571782    2.43451416    2.86425315 
  C3     2.62432685    4.85719432    2.23767664 
  C3     2.62483274    7.44053481    2.23822328 
  C1     2.79557283    9.86286783    2.86426955 
  C1     2.86534272   12.28505269    3.35342244 
  C1     2.07904413    3.68409153    2.87479118 
  C3     2.01798237    6.14898892    2.50896886 
  C1     2.07904624    8.61375455    2.87505683 
  C1     2.14162674   11.05203010    3.36544853 
  C1     2.16785858   13.52762058    3.57829630 
  C1     0.72007948    3.69866930    3.34734537 
  C1     0.71797176    6.14903390    3.11033272 
  C1     0.72011176    8.59941649    3.34725488 
  C1     0.73326816   11.05177821    3.66020817 
  C1     0.74171648   13.52758830    3.79718463 
  C3     4.08230373    2.35353840    2.21962111 
  C3     3.60377089    4.58661702    1.20136986 
  C3     3.60520390    7.70993416    1.20170377 
  C3     4.08241485    9.94383724    2.21942849 
  C1     4.26669341   12.27547193    3.02297826 
  C3     8.52303876    1.91053717    1.20596788 
  C3     8.52392778   10.38796720    1.20593983 
  C1     8.52787914   12.29008887    2.68818213 
  C1    12.82412763    2.43526982    2.86432670 
  C3    12.99473807    4.85778277    2.23754117 
  C3    12.99568476    7.44117035    2.23746920 
  C1    12.82454144    9.86357269    2.86420393 
  C1    12.75412701   12.28596287    3.35364311 
  C3     7.09591714    1.91024453    1.20607583 
  C3     7.09677282   10.38740045    1.20576361 
  C1     7.09149957   12.28967293    2.68802391 
  C3    11.53732899    2.35426390    2.21930678 
  C3    12.01452671    4.58830721    1.20151379 
  C3    12.01610789    7.71161324    1.20126032 
  C3    11.53803862    9.94455903    2.21930360 
  C1    11.35330338   12.27558200    3.02306082 
  C1    15.61165537    2.48441821    3.61453647 
  C1    15.61622270    4.92850995    3.33071280 
  C1    15.61587027    7.36981609    3.33072392 
  C1    15.61168977    9.81422322    3.61472592 
  C1    15.60758600   12.28518022    3.82860453 
  C3     6.33896671   11.16978526    2.18482453 
  C1     6.39174632   13.52747293    2.91771433 
  C3    11.28525543    3.36164956    1.20073431 
  C3    11.28670537    8.93791210    1.20013899 
  C3    10.70568097   11.11227481    2.45580295 
  C1    10.64309518   13.52759994    3.03690303 
  C1    14.89928601    3.69902808    3.34721573 
  C1    14.90165672    6.14927944    3.11030520 
  C1    14.89946593    8.59955143    3.34733638 
  C1    14.88622274   11.05188140    3.66072147 
  C1    14.87749714   13.52779626    3.79722115 
  C3     4.33348087    3.36028905    1.20025117 
  C3     4.33466993    8.93642512    1.20104388 
  C3     4.91455554   11.11188269    2.45553995 
  C1     4.97675186   13.52719300    3.03727399 
  C3     9.28125392   11.17058590    2.18538705 
  C1     9.22811289   13.52769254    2.91740477 
  C1    13.54068755    3.68461171    2.87481552 
  C3    13.60182604    6.14941226    2.50872861 
  C1    13.54099288    8.61402972    2.87478060 
  C1    13.47779589   11.05250530    3.36590309 
  C1    13.45138678   13.52767243    3.57808516 
  Tv    17.04000680    0.00000000    0.00000000 
  Tv     0.00000000   14.75707789    0.00000000 
  Tv     0.00000000    0.00000000    3.39267991 

