#hf units=au

graphene sheet

0  1
C    0.0    0.0     0.0 
C    5.36682    0.0     0.0 
C    4.02512    2.3239     0.0 
C    1.34171    2.3239     0.0 
Tv    8.05023    0.0     0.0 
Tv    0.0    4.6478     0.0 
Tv   0.0  0.0 6.417212583333335


